1000
200 200
1 160 943
2 160 917
3 160 505
4 160 350
5 160 254
6 160 477
7 159 987
8 159 817
9 159 211
10 159 876
11 159 501
12 158 524
13 158 937
14 158 713
15 158 470
16 157 680
17 157 146
18 157 873
19 157 853
20 157 364
21 156 206
22 156 687
23 156 596
24 156 499
25 156 265
26 155 597
27 155 148
28 155 678
29 155 414
30 155 568
31 155 906
32 155 272
33 155 879
34 155 894
35 155 678
36 154 970
37 154 303
38 154 712
39 154 342
40 154 889
41 154 747
42 153 502
43 153 848
44 153 283
45 152 395
46 152 49
47 152 113
48 152 666
49 152 473
50 152 585
51 152 309
52 152 679
53 152 597
54 152 574
55 151 928
56 151 434
57 151 524
58 151 26
59 151 785
60 151 400
61 150 665
62 150 444
63 150 112
64 150 803
65 150 679
66 150 957
67 149 791
68 149 264
69 148 146
70 148 338
71 148 986
72 148 400
73 148 462
74 148 446
75 147 728
76 147 250
77 147 215
78 147 284
79 147 712
80 147 603
81 147 927
82 147 285
83 146 408
84 146 495
85 146 378
86 146 818
87 146 439
88 146 673
89 146 458
90 146 831
91 146 798
92 145 865
93 145 130
94 145 80
95 145 595
96 145 957
97 145 25
98 145 300
99 145 188
100 145 527
101 144 703
102 144 79
103 144 174
104 144 187
105 144 431
106 144 298
107 144 746
108 144 930
109 143 774
110 143 672
111 143 569
112 143 323
113 143 869
114 143 827
115 142 498
116 142 773
117 142 223
118 142 134
119 142 328
120 142 121
121 142 501
122 141 333
123 141 282
124 141 342
125 141 404
126 141 769
127 141 164
128 141 477
129 140 609
130 140 797
131 140 511
132 140 932
133 139 89
134 139 237
135 139 578
136 139 814
137 139 100
138 139 973
139 138 962
140 138 718
141 138 742
142 138 955
143 138 925
144 138 315
145 138 21
146 138 355
147 137 375
148 137 114
149 137 59
150 137 597
151 137 200
152 137 689
153 137 816
154 137 448
155 136 298
156 136 405
157 136 944
158 136 903
159 136 680
160 136 209
161 136 239
162 136 676
163 136 95
164 136 719
165 135 199
166 135 134
167 135 247
168 135 931
169 135 503
170 135 923
171 134 947
172 134 49
173 134 943
174 134 875
175 134 74
176 134 997
177 134 951
178 134 740
179 134 680
180 133 627
181 133 28
182 133 683
183 133 394
184 133 985
185 132 66
186 132 354
187 132 927
188 132 605
189 132 382
190 132 835
191 131 885
192 131 277
193 131 536
194 130 486
195 130 459
196 130 299
197 130 672
198 130 84
199 130 165
200 130 261
201 129 169
202 129 164
203 129 122
204 129 881
205 129 200
206 128 995
207 128 910
208 128 234
209 128 997
210 128 830
211 128 964
212 128 141
213 128 481
214 128 955
215 128 589
216 128 279
217 127 601
218 127 501
219 127 744
220 127 360
221 127 568
222 127 288
223 127 30
224 127 267
225 127 139
226 127 379
227 127 528
228 127 838
229 126 124
230 126 432
231 126 362
232 126 168
233 126 685
234 126 398
235 126 994
236 125 212
237 125 705
238 125 116
239 125 419
240 125 452
241 125 820
242 124 739
243 123 32
244 123 280
245 122 65
246 122 148
247 122 245
248 122 147
249 122 550
250 121 536
251 121 58
252 121 191
253 121 933
254 121 58
255 120 497
256 120 700
257 120 376
258 120 258
259 119 349
260 119 636
261 119 142
262 119 391
263 119 512
264 118 936
265 118 302
266 118 491
267 118 602
268 117 78
269 117 155
270 117 331
271 117 447
272 116 767
273 116 550
274 116 505
275 116 926
276 116 967
277 116 303
278 116 367
279 116 393
280 116 497
281 115 81
282 115 516
283 115 61
284 115 82
285 115 982
286 115 543
287 115 600
288 114 354
289 114 675
290 114 555
291 114 301
292 114 438
293 114 707
294 114 51
295 114 43
296 114 917
297 114 306
298 113 529
299 113 93
300 113 552
301 113 761
302 113 741
303 113 762
304 113 361
305 112 188
306 112 233
307 112 334
308 112 551
309 112 901
310 112 427
311 111 775
312 111 196
313 111 863
314 111 721
315 111 806
316 111 817
317 111 33
318 111 28
319 111 950
320 111 882
321 110 308
322 110 749
323 110 452
324 109 189
325 109 437
326 109 437
327 109 34
328 109 754
329 109 675
330 109 824
331 108 54
332 108 697
333 108 469
334 108 104
335 108 272
336 108 545
337 108 274
338 107 233
339 107 104
340 107 965
341 107 247
342 107 754
343 107 128
344 107 335
345 106 233
346 106 140
347 106 645
348 106 324
349 106 119
350 105 522
351 105 589
352 105 999
353 105 16
354 104 109
355 104 220
356 104 347
357 104 662
358 104 124
359 104 266
360 104 37
361 104 871
362 104 662
363 103 605
364 103 585
365 103 660
366 103 757
367 103 584
368 103 217
369 102 465
370 102 431
371 102 605
372 102 793
373 102 560
374 102 431
375 102 772
376 102 477
377 102 410
378 102 458
379 101 307
380 101 565
381 101 889
382 101 918
383 101 16
384 101 738
385 100 530
386 100 466
387 100 715
388 100 79
389 100 453
390 100 540
391 99 225
392 99 233
393 99 670
394 99 156
395 99 162
396 99 967
397 99 359
398 99 419
399 99 315
400 98 884
401 98 552
402 98 480
403 98 806
404 98 647
405 98 151
406 98 264
407 98 286
408 97 83
409 97 20
410 97 86
411 97 22
412 97 855
413 97 973
414 97 698
415 97 884
416 97 835
417 97 129
418 97 888
419 97 751
420 97 973
421 96 808
422 96 129
423 96 407
424 96 774
425 96 177
426 96 199
427 96 302
428 96 794
429 95 140
430 95 224
431 95 511
432 95 798
433 95 320
434 95 31
435 95 828
436 94 493
437 94 434
438 94 653
439 94 299
440 94 858
441 94 645
442 94 807
443 94 449
444 93 45
445 93 74
446 93 338
447 93 581
448 93 738
449 93 465
450 93 649
451 92 380
452 92 893
453 92 270
454 92 310
455 91 487
456 91 343
457 91 91
458 91 626
459 91 403
460 91 477
461 91 14
462 90 186
463 90 32
464 90 606
465 90 151
466 90 855
467 90 18
468 90 993
469 90 614
470 90 938
471 90 298
472 89 189
473 89 889
474 89 586
475 89 608
476 88 330
477 88 608
478 88 169
479 88 39
480 88 777
481 88 349
482 88 594
483 87 85
484 87 50
485 87 954
486 87 137
487 87 20
488 87 219
489 87 885
490 87 640
491 87 18
492 87 560
493 86 157
494 86 989
495 86 770
496 86 727
497 86 593
498 85 776
499 85 728
500 85 711
501 85 427
502 85 164
503 85 467
504 85 769
505 85 283
506 84 514
507 84 981
508 84 821
509 84 723
510 84 409
511 83 791
512 83 480
513 83 835
514 83 288
515 83 619
516 83 591
517 83 404
518 83 756
519 83 793
520 83 768
521 83 893
522 83 931
523 83 301
524 82 326
525 82 295
526 82 284
527 82 448
528 82 195
529 82 652
530 82 149
531 82 35
532 82 124
533 81 940
534 81 856
535 81 184
536 81 233
537 81 214
538 81 166
539 81 709
540 81 384
541 81 761
542 81 777
543 81 401
544 80 993
545 80 752
546 80 440
547 80 929
548 80 440
549 80 184
550 80 7
551 80 908
552 80 710
553 80 719
554 80 693
555 80 627
556 79 311
557 79 740
558 79 281
559 79 348
560 79 378
561 79 78
562 78 951
563 78 356
564 78 113
565 78 259
566 78 702
567 78 766
568 78 699
569 78 412
570 77 158
571 77 224
572 77 479
573 77 150
574 77 246
575 77 802
576 77 453
577 76 607
578 76 511
579 76 691
580 76 833
581 76 752
582 76 969
583 75 47
584 75 176
585 75 604
586 75 957
587 75 696
588 75 688
589 75 138
590 75 351
591 75 954
592 75 726
593 75 137
594 74 864
595 74 161
596 74 743
597 74 107
598 74 458
599 74 92
600 74 968
601 74 51
602 74 589
603 74 781
604 74 885
605 74 995
606 74 870
607 74 701
608 74 594
609 74 253
610 73 450
611 73 298
612 73 692
613 73 763
614 73 884
615 73 625
616 73 998
617 73 912
618 73 948
619 72 238
620 72 105
621 72 122
622 72 674
623 72 766
624 72 289
625 72 569
626 72 339
627 72 168
628 71 959
629 71 17
630 71 753
631 71 475
632 71 418
633 71 142
634 70 961
635 70 385
636 70 326
637 70 83
638 70 244
639 70 192
640 69 794
641 69 76
642 69 800
643 69 980
644 69 206
645 69 932
646 69 23
647 69 969
648 69 588
649 69 175
650 69 345
651 68 186
652 68 158
653 68 267
654 68 909
655 68 125
656 68 717
657 68 38
658 68 998
659 68 680
660 68 204
661 68 126
662 67 806
663 67 858
664 67 580
665 67 249
666 67 728
667 67 699
668 66 701
669 66 638
670 66 60
671 66 595
672 66 407
673 66 573
674 66 688
675 65 352
676 65 283
677 65 484
678 65 467
679 65 134
680 65 748
681 65 468
682 65 851
683 65 607
684 65 724
685 65 861
686 64 951
687 64 660
688 64 843
689 64 158
690 64 55
691 64 653
692 64 327
693 64 850
694 63 144
695 63 351
696 63 765
697 62 264
698 62 28
699 62 64
700 62 878
701 62 798
702 61 38
703 61 238
704 61 201
705 61 36
706 61 589
707 61 671
708 61 297
709 61 659
710 61 466
711 61 67
712 61 460
713 60 762
714 60 689
715 60 370
716 60 818
717 60 849
718 60 396
719 60 742
720 60 769
721 59 206
722 59 271
723 59 503
724 59 541
725 59 920
726 58 788
727 58 968
728 58 395
729 58 103
730 58 15
731 58 154
732 57 728
733 57 125
734 57 410
735 57 9
736 57 271
737 57 651
738 57 481
739 57 793
740 57 802
741 57 41
742 57 830
743 56 4
744 56 701
745 56 159
746 56 51
747 56 114
748 56 954
749 56 93
750 55 100
751 55 108
752 55 279
753 55 722
754 55 739
755 55 724
756 55 893
757 55 498
758 54 596
759 54 184
760 54 225
761 54 787
762 54 258
763 54 988
764 53 750
765 53 952
766 53 186
767 53 277
768 52 444
769 52 646
770 52 570
771 52 731
772 52 955
773 52 465
774 51 102
775 51 218
776 51 376
777 51 992
778 50 821
779 50 66
780 50 310
781 50 59
782 50 77
783 50 995
784 50 803
785 49 619
786 49 447
787 49 176
788 49 959
789 49 489
790 49 901
791 49 454
792 49 857
793 49 292
794 49 894
795 49 414
796 48 731
797 48 531
798 48 5
799 48 602
800 48 9
801 47 705
802 47 772
803 47 89
804 47 878
805 47 667
806 47 51
807 47 312
808 46 492
809 45 398
810 45 174
811 45 588
812 45 485
813 45 671
814 45 29
815 44 327
816 44 58
817 44 421
818 44 714
819 44 726
820 44 358
821 44 237
822 43 368
823 43 612
824 43 184
825 43 426
826 43 462
827 43 335
828 43 572
829 42 638
830 42 161
831 42 160
832 42 294
833 42 398
834 42 652
835 42 985
836 42 924
837 41 143
838 41 831
839 41 130
840 41 221
841 41 985
842 41 9
843 41 726
844 41 237
845 41 44
846 41 902
847 40 137
848 40 517
849 40 466
850 40 832
851 40 317
852 40 740
853 40 91
854 40 726
855 40 322
856 40 273
857 40 501
858 39 225
859 39 232
860 39 810
861 39 504
862 39 882
863 39 733
864 39 267
865 39 963
866 38 159
867 38 983
868 38 484
869 38 760
870 38 204
871 37 75
872 37 554
873 37 984
874 36 693
875 36 276
876 36 440
877 35 305
878 35 977
879 35 589
880 35 302
881 35 491
882 35 955
883 35 215
884 35 427
885 35 138
886 34 427
887 34 27
888 34 928
889 34 342
890 34 290
891 33 363
892 33 117
893 33 641
894 33 466
895 33 514
896 32 471
897 32 162
898 32 187
899 32 402
900 32 177
901 32 257
902 32 1
903 32 351
904 32 630
905 32 855
906 31 428
907 31 419
908 31 236
909 31 254
910 31 517
911 30 755
912 30 729
913 30 549
914 30 88
915 30 16
916 30 563
917 30 934
918 30 347
919 30 508
920 30 623
921 29 746
922 29 748
923 29 247
924 29 771
925 29 706
926 29 296
927 29 411
928 28 891
929 28 366
930 28 361
931 28 229
932 27 616
933 27 252
934 27 730
935 27 419
936 27 774
937 27 460
938 27 249
939 27 141
940 27 948
941 27 476
942 27 108
943 26 749
944 26 508
945 26 743
946 26 320
947 26 827
948 26 544
949 26 422
950 26 72
951 25 723
952 25 418
953 25 716
954 25 247
955 25 50
956 25 750
957 25 267
958 24 398
959 24 196
960 24 146
961 24 73
962 24 47
963 24 246
964 24 438
965 24 19
966 24 634
967 24 649
968 24 414
969 24 895
970 23 56
971 23 721
972 23 828
973 23 295
974 23 247
975 23 496
976 23 685
977 23 851
978 22 569
979 22 824
980 22 178
981 22 804
982 22 691
983 22 324
984 22 79
985 21 689
986 21 517
987 21 774
988 21 214
989 21 686
990 21 848
991 21 547
992 21 180
993 21 583
994 20 92
995 20 626
996 20 401
997 20 613
998 20 468
999 20 617
1000 20 932
